WARNING: for repeatability, setting FPU to use double precision
============================[ Problem Statistics ]=============================
|                                                                             |
|  Number of variables:       4722359                                         |
|  Number of clauses:        18734004                                         |
|  Parse time:                   4.33 s                                       |
|                                                                             |
c ============================[ Search Statistics ]==============================
c | Conflicts |          ORIGINAL         |          LEARNT          | Progress |
c |           |    Vars  Clauses Literals |    Limit  Clauses Lit/Cl |          |
c ===============================================================================
c Switched to VSIDS.
c Switched to LRB.
c Switched to VSIDS.
c Switched to LRB.
c Switched to VSIDS.
c Switched to LRB.
c Switched to VSIDS.
c Switched to LRB.
c Switched to VSIDS.
c Switched to LRB.
c Switched to VSIDS.
c Switched to LRB.
c Switched to VSIDS.
c Switched to LRB.
c Switched to VSIDS.
c Switched to LRB.
c Switched to VSIDS.
c Switched to LRB.
c Switched to VSIDS.
c Switched to LRB.
c Switched to VSIDS.
c Switched to LRB.
c Switched to VSIDS.
c ===============================================================================
restarts                  : 283
conflicts                 : 55115          (28 /sec)
decisions                 : 10078084       (0.00 % random) (5118 /sec)
propagations              : 3969969501     (2016201 /sec)
conflict literals         : 18944867       (20.59 % deleted)

conflicts w/ DIP found    : 44258          (80.30 % of conflicts)
conflicts w/ dangerous DIP: 0              (0.00 % of conflicts)
conflicts w/ DIP-learning : 4542           (8.24 % of conflicts)
decisions on ext vars     : 7517           (0.07 % of decisions)
total ext vars            : 107         
tried delete ext vars     : 61          
deleted ext vars          : 61          
max ext vars              : 55          

Memory used               : 2850.00 MB
CPU time                  : 1969.03 s
DIP computation time      : 1.66258 s (0.08 % of total time)
ER_sel time               : 0.111244 s
ER_add time               : 0.001748 s
ER_delC time              : 0 s
ER_delV time              : 0.068652 s
ER_sub time               : 0.253992 s
ER_stat time              : 0 s

UNSATISFIABLE
